Traveling Salesman Problem/TSP_generados/Aleatorio1621103363_12.tsp
NAME: Aleatorio1621103363_12.tsp
COMMENT: Randomly generated scenario
TYPE: TSP
DIMENSION: 12
EDGE_WEIGHT_TYPE: ATT
NODE_COORD_SECTION
1 24.98 15.41
2 15.55 2.64
3 22.27 31.98
4 6.13 34.57
5 37.09 35.47
6 3.82 17.94
7 5.66 42.72
8 26.82 19.48
9 36.25 8.01
10 8.73 20.22
11 7.86 26.92
12 19.99 48.96
