Traveling Salesman Problem/TSP_generados/Aleatorio1621103363_12.opt.tour
NAME: Aleatorio1621103363_12.opt.tour
COMMENT: Optimal solution for Aleatorio1621103363_12 (152.7276163820505)
TYPE: TOUR
DIMENSION: 12
TOUR_SECTION
1 9 2 6 10 11 4 7 12 5 3 8
-1
EOF
